(set-logic QF_S)
(declare-const x String)
(declare-const y String)
(assert (str.in.re x (re.* (str.to.re "aabb"))))
(assert (str.in.re x (re.+ (str.to.re "aaaabb"))))
(assert (str.in.re x (re.* (str.to.re "aabbhhAAhh''\\\\\\\\nn''cccc"))))
(assert (> (str.len x) 2))
(check-sat)
